30   435
106
56 41 30 45 73 35 31 33 52 70 30 32 31 72 61 69 80 45 91 70 83 91 47 60 101 74 100 79 38 1 2 64
1 3 85
1 4 294
1 5 156
1 6 192
1 7 66
1 8 253
1 9 132
1 10 41
1 11 98
1 12 131
1 13 293
1 14 89
1 15 14
1 16 92
1 17 114
1 18 242
1 19 280
1 20 244
1 21 35
1 22 104
1 23 85
1 24 115
1 25 214
1 26 215
1 27 183
1 28 148
1 29 211
1 30 246
2 3 204
2 4 156
2 5 172
2 6 201
2 7 199
2 8 274
2 9 109
2 10 204
2 11 122
2 12 195
2 13 181
2 14 250
2 15 269
2 16 245
2 17 161
2 18 99
2 19 278
2 20 248
2 21 78
2 22 116
2 23 258
2 24 271
2 25 225
2 26 18
2 27 52
2 28 167
2 29 160
2 30 110
3 4 282
3 5 220
3 6 144
3 7 67
3 8 83
3 9 111
3 10 207
3 11 227
3 12 240
3 13 200
3 14 214
3 15 134
3 16 298
3 17 25
3 18 115
3 19 299
3 20 29
3 21 231
3 22 159
3 23 97
3 24 155
3 25 64
3 26 169
3 27 269
3 28 85
3 29 285
3 30 80
4 5 104
4 6 291
4 7 28
4 8 39
4 9 120
4 10 268
4 11 218
4 12 271
4 13 59
4 14 137
4 15 226
4 16 191
4 17 237
4 18 210
4 19 287
4 20 105
4 21 289
4 22 214
4 23 12
4 24 121
4 25 287
4 26 72
4 27 147
4 28 122
4 29 140
4 30 88
5 6 296
5 7 223
5 8 103
5 9 121
5 10 163
5 11 123
5 12 99
5 13 265
5 14 262
5 15 289
5 16 80
5 17 205
5 18 250
5 19 16
5 20 51
5 21 102
5 22 144
5 23 35
5 24 34
5 25 78
5 26 198
5 27 198
5 28 238
5 29 26
5 30 53
6 7 64
6 8 202
6 9 177
6 10 230
6 11 143
6 12 161
6 13 31
6 14 186
6 15 59
6 16 221
6 17 111
6 18 156
6 19 82
6 20 299
6 21 13
6 22 21
6 23 208
6 24 73
6 25 233
6 26 49
6 27 164
6 28 91
6 29 248
6 30 184
7 8 282
7 9 92
7 10 28
7 11 103
7 12 300
7 13 152
7 14 224
7 15 61
7 16 109
7 17 208
7 18 226
7 19 170
7 20 240
7 21 254
7 22 236
7 23 85
7 24 224
7 25 106
7 26 256
7 27 39
7 28 131
7 29 284
7 30 117
8 9 202
8 10 267
8 11 181
8 12 85
8 13 273
8 14 32
8 15 263
8 16 203
8 17 103
8 18 237
8 19 35
8 20 92
8 21 163
8 22 20
8 23 150
8 24 108
8 25 264
8 26 276
8 27 269
8 28 260
8 29 233
8 30 270
9 10 120
9 11 287
9 12 290
9 13 244
9 14 170
9 15 68
9 16 119
9 17 27
9 18 147
9 19 82
9 20 18
9 21 284
9 22 28
9 23 139
9 24 151
9 25 26
9 26 94
9 27 90
9 28 201
9 29 232
9 30 151
10 11 108
10 12 163
10 13 46
10 14 165
10 15 17
10 16 123
10 17 225
10 18 19
10 19 51
10 20 271
10 21 90
10 22 119
10 23 73
10 24 117
10 25 257
10 26 157
10 27 18
10 28 201
10 29 47
10 30 248
11 12 265
11 13 47
11 14 274
11 15 235
11 16 97
11 17 168
11 18 135
11 19 211
11 20 81
11 21 118
11 22 122
11 23 168
11 24 76
11 25 208
11 26 244
11 27 172
11 28 205
11 29 227
11 30 54
12 13 14
12 14 170
12 15 58
12 16 113
12 17 236
12 18 253
12 19 120
12 20 41
12 21 151
12 22 295
12 23 113
12 24 197
12 25 166
12 26 37
12 27 22
12 28 169
12 29 112
12 30 168
13 14 153
13 15 235
13 16 59
13 17 56
13 18 166
13 19 19
13 20 285
13 21 190
13 22 249
13 23 46
13 24 268
13 25 171
13 26 250
13 27 76
13 28 39
13 29 213
13 30 248
14 15 190
14 16 230
14 17 116
14 18 223
14 19 226
14 20 19
14 21 129
14 22 149
14 23 52
14 24 232
14 25 78
14 26 188
14 27 216
14 28 293
14 29 267
14 30 235
15 16 177
15 17 296
15 18 276
15 19 132
15 20 84
15 21 224
15 22 14
15 23 44
15 24 157
15 25 117
15 26 122
15 27 135
15 28 12
15 29 228
15 30 264
16 17 67
16 18 142
16 19 298
16 20 154
16 21 135
16 22 278
16 23 198
16 24 209
16 25 246
16 26 196
16 27 18
16 28 99
16 29 195
16 30 40
17 18 244
17 19 48
17 20 286
17 21 208
17 22 96
17 23 76
17 24 238
17 25 289
17 26 39
17 27 52
17 28 212
17 29 262
17 30 266
18 19 35
18 20 288
18 21 178
18 22 27
18 23 225
18 24 87
18 25 45
18 26 254
18 27 245
18 28 238
18 29 141
18 30 248
19 20 74
19 21 150
19 22 131
19 23 206
19 24 297
19 25 40
19 26 296
19 27 256
19 28 14
19 29 250
19 30 265
20 21 41
20 22 287
20 23 43
20 24 250
20 25 128
20 26 11
20 27 40
20 28 224
20 29 249
20 30 92
21 22 192
21 23 291
21 24 102
21 25 157
21 26 28
21 27 78
21 28 106
21 29 169
21 30 105
22 23 194
22 24 75
22 25 188
22 26 161
22 27 52
22 28 207
22 29 138
22 30 254
23 24 121
23 25 261
23 26 55
23 27 265
23 28 72
23 29 40
23 30 163
24 25 291
24 26 146
24 27 151
24 28 275
24 29 62
24 30 156
25 26 39
25 27 229
25 28 294
25 29 270
25 30 209
26 27 98
26 28 30
26 29 216
26 30 262
27 28 75
27 29 42
27 30 143
28 29 294
28 30 94
29 30 151
